# Test system for LAMMPS simulation
# units style real: time=femtoseconds
units               real
atom_style          awsemmd
boundary            p p p
newton              on  #yes

#   ---         Variables for debye huckel potential        ---     #
#   parallel replica temperatures
variable            T   equal  300
variable v1 equal random(1,1000,7228)
variable            random      equal   round(v_v1)
#variable            rseed   equal   12345

variable            salt        equal   150.0       # Salt concentration [mM]
variable            ldby        equal   7.853761348027935    # debye screen length, depend on both T and salt, determined from known formula given that dielec=78
variable            ldbi        equal   1.0/v_ldby  # debye screen length
variable            cut_coul    equal   40.0

variable            cut_lj      equal   15.0
variable            cut_lj_pair equal   20.0
variable            dielec      equal   78.0

read_data           /nobackup1c/users/smliu/smog-3spn2c-openmm/lammps-chromatin-2mer/chromatin-2mer-structure/single_nucleo/post_processing/data.prot_dna 
read_dump           ../../relaxed1.dcd 0 x y z box no format molfile dcd /home/xclin/lib/vmd.old/plugins/LINUXAMD64/molfile

variable            inputdir    string "/nobackup1c/users/smliu/smog-3spn2c-openmm/lammps-chromatin-2mer/chromatin-2mer-structure/single_nucleo/post_processing"
# Specify the different interaction styles
bond_style          hybrid list ${inputdir}/dna_list_files/in00_bond.list list/ca ${inputdir}/prot_list_files/ca_bond_list.txt
angle_style         hybrid stacking/3spn2   list    ${inputdir}/dna_list_files/in00_angl.list list/ca ${inputdir}/prot_list_files/ca_angle_list.txt
dihedral_style      hybrid list ${inputdir}/dna_list_files/in00_dihe.list list/ca ${inputdir}/prot_list_files/ca_dihed_list.txt


pair_style          hybrid/overlay 3spn2 bdna/curv ${T} ${salt} 18.0 50.0 list ${inputdir}/prot_list_files/ca_pair_list.txt ${cut_lj_pair} nocheck lj/cut/coul/debye ${ldbi} 10.0 ${cut_coul}
pair_coeff          * * list

dielectric          ${dielec} 

# read in pair interaction
include           /nobackup1c/users/smliu/smog-3spn2c-openmm/ff-ppMJ/proteinDna_pairCoeff_variable_cut_coul.in
## shift the cutoff energy
pair_modify         shift yes

include           ${inputdir}/forcefield/bonded_ff.txt

#   ---         group definitions       --- #
include             ${inputdir}/groupsDefinition/group_rigid.txt
#group nonRigidBody subtract all nucl1 nucl2 nucl3 nucl4 nucl5 nucl6 nucl7 nucl8 nucl9 nucl10 nucl11 nucl12
#group2ndx           groups.ndx  

# ---     from AWSEM simulation   ---
neighbor            5      bin 
# Delete the nonbonded interactions of the defined rigid body;
#neigh_modify exclude group nucl1 nucl1 check no 
#neigh_modify exclude group nucl2 nucl2 check no 
#neigh_modify exclude group nucl3 nucl3 check no 
#neigh_modify exclude group nucl4 nucl4 check no 
#neigh_modify exclude group nucl5 nucl5 check no 
#neigh_modify exclude group nucl6 nucl6 check no 
#neigh_modify exclude group nucl7 nucl7 check no 
#neigh_modify exclude group nucl8 nucl8 check no 
#neigh_modify exclude group nucl9 nucl9 check no 
#neigh_modify exclude group nucl10 nucl10 check no 
#neigh_modify exclude group nucl11 nucl11 check no 
#neigh_modify exclude group nucl12 nucl12 check no 
neigh_modify        check  yes     one 5000    # this avoids the error "boost neigh_modify one"
atom_modify         sort 0 0.0
#special_bonds       fene
special_bonds       lj 0.0 0.0 0.0
# Delete the bonds of the defined rigid body;
#delete_bonds        nucl1  multi   remove
#delete_bonds        nucl2  multi   remove
#delete_bonds        nucl3  multi   remove
#delete_bonds        nucl4  multi   remove
#delete_bonds        nucl5  multi   remove
#delete_bonds        nucl6  multi   remove
#delete_bonds        nucl7  multi   remove
#delete_bonds        nucl8  multi   remove
#delete_bonds        nucl9  multi   remove
#delete_bonds        nucl10  multi   remove
#delete_bonds        nucl11  multi   remove
#delete_bonds        nucl12  multi   remove

# compute different components of DNA non-bonded energy
# code from LAMMPS-3SPN2/GCGI/example/DNA_with_GCGI_ions.in
compute edna all pair 3spn2
variable ebp equal c_edna[1] # Base pairing energy
variable ecstk equal c_edna[2] # Cross stacking energy
variable eexcl equal c_edna[3] # Excluded volume energy
variable dna_ecoul equal c_edna[4] # DNA coulombic energy
variable nbp equal c_edna[5] # Number of base pairs

compute e_bonds all bond
compute e_angles all angle
compute e_dihedrals all dihedral
compute e_sbm_pair all pair list
compute e_lj_debye all pair lj/cut/coul/debye
compute e_lj_debye_vdwl all pair lj/cut/coul/debye evdwl
compute e_lj_debye_coul all pair lj/cut/coul/debye ecoul

#####################################################
timestep            10.0
thermo              1
#thermo_style        multi
thermo_style        custom step pe v_ebp v_ecstk v_eexcl v_dna_ecoul v_nbp c_e_bonds[*] c_e_angles[*] c_e_dihedrals[*] c_e_sbm_pair c_e_lj_debye c_e_lj_debye_vdwl c_e_lj_debye_coul
thermo_modify flush yes

velocity            all create ${T} ${random} rot yes mom yes dist gaussian

#minimize        1.0e-4 1.0e-6 100 1000
reset_timestep 0

# Fix from plumed
#fix     pl all plumed plumedfile plumed.txt outfile plumed.out
#fix                 3 all colvars input.colvars output out_temp${T}
#fix_modify          3 energy yes

dump                1 all dcd 1000 DUMP_FILE.dcd
dump_modify         1 sort id

#fix myfix   nonRigidBody nvt temp ${T} ${T} 1000.0
#fix             rigidBody core rigid/nvt group 12 nucl1 nucl2 nucl3 nucl4 nucl5 nucl6 nucl7 nucl8 nucl9 nucl10 nucl11 nucl12 temp ${T} ${T} 1000.0 
fix myfix   all nvt temp ${T} ${T} 1000.0

balance 1.1 shift xyz 10 1.0
run 0
